unsat
(define-fun SC ((s (_ BitVec 4)) (t (_ BitVec 4))) Bool (bvult #b0000 t))
0.12user 0.00system 0:00.12elapsed 100%CPU (0avgtext+0avgdata 28184maxresident)k
8inputs+8outputs (0major+1596minor)pagefaults 0swaps
